certificates/rado_a9_c28_N17.cnf
c Rad2 upper bound instance: x1 + 9*x2 - x3 = 28, interval [1,17]
p cnf 17 64
1 4 9 0
-1 -4 -9 0
1 2 3 0
-1 -2 -3 0
2 4 10 0
-2 -4 -10 0
2 3 0
-2 -3 0
3 4 11 0
-3 -4 -11 0
3 4 0
-3 -4 0
4 12 0
-4 -12 0
3 4 5 0
-3 -4 -5 0
4 5 13 0
-4 -5 -13 0
3 5 6 0
-3 -5 -6 0
4 6 14 0
-4 -6 -14 0
3 6 7 0
-3 -6 -7 0
4 7 15 0
-4 -7 -15 0
3 7 8 0
-3 -7 -8 0
4 8 16 0
-4 -8 -16 0
3 8 9 0
-3 -8 -9 0
4 9 17 0
-4 -9 -17 0
3 9 10 0
-3 -9 -10 0
1 2 11 0
-1 -2 -11 0
3 10 11 0
-3 -10 -11 0
2 12 0
-2 -12 0
3 11 12 0
-3 -11 -12 0
2 3 13 0
-2 -3 -13 0
3 12 13 0
-3 -12 -13 0
2 4 14 0
-2 -4 -14 0
3 13 14 0
-3 -13 -14 0
2 5 15 0
-2 -5 -15 0
3 14 15 0
-3 -14 -15 0
2 6 16 0
-2 -6 -16 0
3 15 16 0
-3 -15 -16 0
2 7 17 0
-2 -7 -17 0
3 16 17 0
-3 -16 -17 0
