certificates/rado_a9_c28_N17.drat
-16 -17 0
d -3 -16 -17 0
8 -17 0
-4 -17 0
-17 0
4 0
-3 0
-12 0
2 0
16 0
13 0
11 0
-6 0
-10 0
-14 0
-8 0
-5 0
-1 0
7 0
0
